(set-info :smt-lib-version 2.6)
(set-logic UF)
(set-info :source |Benchmarks from the paper: "Extending Sledgehammer with SMT Solvers" by Jasmin Blanchette, Sascha Bohme, and Lawrence C. Paulson, CADE 2011.  Translated to SMT2 by Andrew Reynolds and Morgan Deters.|)
(set-info :category "industrial")
(set-info :status sat)
(declare-sort S1 0)
(declare-sort S2 0)
(declare-sort S3 0)
(declare-sort S4 0)
(declare-sort S5 0)
(declare-sort S6 0)
(declare-fun f1 () S1)
(declare-fun f2 () S1)
(declare-fun f3 (S2 S2) S1)
(declare-fun f4 (S3 S2) S2)
(declare-fun f5 (S4 S2) S3)
(declare-fun f6 () S4)
(declare-fun f7 () S2)
(declare-fun f8 (S5 S6) S2)
(declare-fun f9 () S5)
(declare-fun f10 () S6)
(declare-fun f11 () S4)
(declare-fun f12 () S3)
(declare-fun f13 () S3)
(declare-fun f14 () S3)
(declare-fun f15 () S2)
(declare-fun f16 () S2)
(declare-fun f17 () S6)
(declare-fun f18 (S2) S1)
(declare-fun f19 (S6 S6) S1)
(declare-fun f20 () S2)
(declare-fun f21 (S2) S1)
(declare-fun f22 () S6)
(declare-fun f23 () S2)
(declare-fun f24 () S2)
(declare-fun f25 () S6)
(assert (not (= f1 f2)))
(assert (not (= (f3 (f4 (f5 f6 f7) (f8 f9 f10)) (f4 (f5 f6 (f4 (f5 f11 (f4 f12 (f4 f13 (f4 f13 (f4 f14 f15))))) f16)) f7)) f1)))
(assert (let ((?v_0 (f4 (f5 f6 (f4 (f5 f11 (f4 f12 (f4 f13 (f4 f13 (f4 f14 f15))))) f16)) f7)) (?v_1 (f4 (f5 f6 f7) (f8 f9 f17)))) (and (= (f3 ?v_1 ?v_0) f1) (= (f18 (f4 (f5 f11 ?v_0) ?v_1)) f1))))
(assert (= (f19 f10 f17) f1))
(assert (= (f19 f10 f17) f1))
(assert (= (f3 f7 f20) f1))
(assert (let ((?v_0 (f4 (f5 f6 (f4 (f5 f11 (f4 f12 (f4 f13 (f4 f13 (f4 f14 f15))))) f16)) f7)) (?v_1 (f4 (f5 f6 f7) (f8 f9 f17)))) (and (= (f3 ?v_1 ?v_0) f1) (= (f18 (f4 (f5 f11 ?v_0) ?v_1)) f1))))
(assert (let ((?v_0 (f4 (f5 f6 (f4 (f5 f11 (f4 f12 (f4 f13 (f4 f13 (f4 f14 f15))))) f16)) f7)) (?v_1 (f4 (f5 f6 f7) (f8 f9 f17)))) (not (=> (= (f3 ?v_1 ?v_0) f1) (not (= (f18 (f4 (f5 f11 ?v_0) ?v_1)) f1))))))
(assert (= (f21 (f4 (f5 f6 (f4 (f5 f11 (f4 f12 (f4 f13 (f4 f13 (f4 f14 f15))))) f16)) f7)) f1))
(assert (not (= (f18 (f4 (f5 f11 (f4 (f5 f6 (f4 (f5 f11 (f4 f12 (f4 f13 (f4 f13 (f4 f14 f15))))) f16)) f7)) (f4 (f5 f6 f7) (f8 f9 f22)))) f1)))
(assert (= (f3 f20 (f4 (f5 f6 (f4 (f5 f11 (f4 f12 (f4 f13 (f4 f13 (f4 f14 f15))))) f16)) f7)) f1))
(assert (= (f3 f23 (f4 (f5 f6 (f4 (f5 f11 (f4 f12 (f4 f13 (f4 f13 (f4 f14 f15))))) f16)) f7)) f1))
(assert (= (f18 (f4 (f5 f11 (f4 (f5 f6 (f4 (f5 f11 (f4 f12 (f4 f13 (f4 f13 (f4 f14 f15))))) f16)) f7)) f20)) f1))
(assert (= (f18 (f4 (f5 f11 (f4 (f5 f6 (f4 (f5 f11 (f4 f12 (f4 f13 (f4 f13 (f4 f14 f15))))) f16)) f7)) f24)) f1))
(assert (forall ((?v0 S2)) (= (f4 (f5 f6 f7) (f4 f12 ?v0)) (f4 f12 (f4 (f5 f6 (f4 f14 f15)) ?v0)))))
(assert (forall ((?v0 S2)) (= (f4 (f5 f6 (f4 f12 ?v0)) f7) (f4 f12 (f4 (f5 f6 ?v0) (f4 f14 f15))))))
(assert (forall ((?v0 S2)) (= (= (f3 f7 (f4 f12 ?v0)) f1) (= (f3 (f4 f14 f15) ?v0) f1))))
(assert (forall ((?v0 S2)) (= (= (f3 (f4 f12 ?v0) f7) f1) (= (f3 ?v0 (f4 f14 f15)) f1))))
(assert (= (f4 (f5 f6 f7) f7) (f4 f12 (f4 f13 (f4 f14 f15)))))
(assert (= (f4 (f5 f6 f7) f7) (f4 f12 (f4 f13 (f4 f14 f15)))))
(assert (forall ((?v0 S2)) (= (f4 (f5 f11 ?v0) (f4 f12 (f4 f13 (f4 f14 f15)))) (f4 (f5 f6 ?v0) ?v0))))
(assert (forall ((?v0 S2)) (= (f4 (f5 f11 ?v0) (f4 f12 (f4 f13 (f4 f14 f15)))) (f4 (f5 f6 ?v0) ?v0))))
(assert (= (f19 f22 f25) f1))
(assert (= (f19 f22 f17) f1))
(assert (= (f3 f23 f24) f1))
(assert (= (f3 f23 (f4 (f5 f6 f7) (f8 f9 f17))) f1))
(assert (= (f3 f24 (f4 (f5 f6 f7) (f8 f9 f17))) f1))
(assert (= (f8 f9 f22) f23))
(assert (forall ((?v0 S6)) (= (= (f8 f9 ?v0) f23) (= ?v0 f22))))
(assert (forall ((?v0 S2)) (= (= (f4 (f5 f6 ?v0) ?v0) f23) (= ?v0 f23))))
(assert (= f15 f23))
(assert (not (= f23 f7)))
(assert (forall ((?v0 S2)) (= (f4 (f5 f6 ?v0) f23) ?v0)))
(assert (forall ((?v0 S2)) (= (f4 (f5 f6 f23) ?v0) ?v0)))
(assert (forall ((?v0 S6)) (= (= (f3 f23 (f8 f9 ?v0)) f1) (= (f19 f22 ?v0) f1))))
(assert (forall ((?v0 S2)) (= (= (f3 (f4 (f5 f6 ?v0) ?v0) f23) f1) (= (f3 ?v0 f23) f1))))
(check-sat)
(exit)
